
Gurobi 11.0.0 (linux64) logging started Tue Sep 17 03:45:53 2024

Set parameter LogFile to value "gurobi.log"
Set parameter InfUnbdInfo to value 1
Gurobi Optimizer version 11.0.0 build v11.0.0rc2 (linux64 - "Ubuntu 22.04.4 LTS")

CPU model: AMD EPYC 7V13 64-Core Processor, instruction set [SSE2|AVX|AVX2]
Thread count: 128 physical cores, 128 logical processors, using up to 32 threads

Optimize a model with 78 rows, 372 columns and 271 nonzeros
Model fingerprint: 0x537cf0de
Model has 290 quadratic constraints
Model has 2 general constraints
Variable types: 86 continuous, 286 integer (0 binary)
Coefficient statistics:
  Matrix range     [1e+00, 2e+05]
  QMatrix range    [1e+00, 2e+05]
  QLMatrix range   [1e+00, 2e+05]
  Objective range  [1e+00, 1e+00]
  Bounds range     [1e+00, 3e+10]
  RHS range        [1e+00, 2e+06]
  QRHS range       [1e+00, 2e+06]
Warning: Model contains large bounds
         Consider reformulating model or setting NumericFocus parameter
         to avoid numerical issues.
Using branch priorities (all 0).
Presolve added 56 rows and 0 columns
Presolve removed 0 rows and 46 columns
Presolve time: 0.01s
Presolved: 1004 rows, 518 columns, 2704 nonzeros
Presolved model has 90 SOS constraint(s)
Presolved model has 151 bilinear constraint(s)
Warning: Model contains variables with very large bounds participating
         in product terms.
         Presolve was not able to compute smaller bounds for these variables.
         Consider bounding these variables or reformulating the model.


Solving non-convex MIQCP

Variable types: 100 continuous, 418 integer (157 binary)

Root relaxation: objective 2.018351e+04, 241 iterations, 0.00 seconds (0.00 work units)

    Nodes    |    Current Node    |     Objective Bounds      |     Work
 Expl Unexpl |  Obj  Depth IntInf | Incumbent    BestBd   Gap | It/Node Time

     0     0 20183.5051    0  122          - 20183.5051      -     -    0s
     0     0 20184.1095    0  147          - 20184.1095      -     -    0s
     0     0 20184.1095    0  169          - 20184.1095      -     -    0s
     0     0 20184.1095    0  173          - 20184.1095      -     -    0s
H    0     0                    712441.00000 20184.1095  97.2%     -    0s
     0     0 20203.0841    0  194 712441.000 20203.0841  97.2%     -    0s
     0     0 20203.0841    0  198 712441.000 20203.0841  97.2%     -    0s
     0     0 20203.0841    0  202 712441.000 20203.0841  97.2%     -    0s
H    0     0                    706366.00000 20204.0370  97.1%     -    0s
     0     0 20204.0370    0  202 706366.000 20204.0370  97.1%     -    0s
     0     0 20228.9352    0  155 706366.000 20228.9352  97.1%     -    0s
     0     0 20229.8331    0  146 706366.000 20229.8331  97.1%     -    0s
H    0     0                    620808.00000 20229.8331  96.7%     -    0s
     0     0 20242.5504    0  158 620808.000 20242.5504  96.7%     -    0s
H    0     0                    30004.000000 20248.1454  32.5%     -    0s
H    0     0                    27050.000000 20248.1454  25.1%     -    0s
     0     0 20248.1454    0  132 27050.0000 20248.1454  25.1%     -    0s
     0     0 20273.0160    0  114 27050.0000 20273.0160  25.1%     -    0s
H    0     0                    26675.000000 20281.3797  24.0%     -    0s
     0     0 20281.3797    0  132 26675.0000 20281.3797  24.0%     -    0s
     0     0 20281.3797    0  126 26675.0000 20281.3797  24.0%     -    0s
H    0     0                    26612.000000 20285.2621  23.8%     -    0s
     0     0 20285.2621    0  103 26612.0000 20285.2621  23.8%     -    0s
     0     0 20285.2621    0  126 26612.0000 20285.2621  23.8%     -    0s
H    0     0                    26600.000000 20292.4053  23.7%     -    0s
     0     0 20292.4053    0  127 26600.0000 20292.4053  23.7%     -    0s
     0     0 20292.4053    0  126 26600.0000 20292.4053  23.7%     -    0s
     0     0 20292.4640    0  126 26600.0000 20292.4640  23.7%     -    0s
     0     0 20297.9709    0  115 26600.0000 20297.9709  23.7%     -    0s
     0     0 20303.9831    0  112 26600.0000 20303.9831  23.7%     -    0s
     0     0 20309.5657    0  114 26600.0000 20309.5657  23.6%     -    0s
     0     0 20321.5067    0  120 26600.0000 20321.5067  23.6%     -    0s
     0     0 20351.2877    0  120 26600.0000 20351.2877  23.5%     -    0s
     0     0 20401.3747    0  111 26600.0000 20401.3747  23.3%     -    0s
H    0     0                    26589.000000 20401.3747  23.3%     -    0s
     0     0 20401.3747    0  114 26589.0000 20401.3747  23.3%     -    0s
     0     0 20401.3747    0  115 26589.0000 20401.3747  23.3%     -    0s
H    0     0                    26581.000000 20401.3747  23.2%     -    0s
     0     0 20401.3747    0  129 26581.0000 20401.3747  23.2%     -    0s
     0     0 20401.3747    0  119 26581.0000 20401.3747  23.2%     -    0s
     0     0 20401.3747    0  122 26581.0000 20401.3747  23.2%     -    0s
     0     0 20401.3747    0  145 26581.0000 20401.3747  23.2%     -    0s
     0     0 20401.3747    0  147 26581.0000 20401.3747  23.2%     -    0s
     0     0 20401.3747    0  147 26581.0000 20401.3747  23.2%     -    0s
     0     0 20450.7637    0  127 26581.0000 20450.7637  23.1%     -    0s
     0     0 20570.4972    0  112 26581.0000 20570.4972  22.6%     -    1s
     0     0 20674.6424    0  115 26581.0000 20674.6424  22.2%     -    1s
     0     0 20844.0737    0  122 26581.0000 20844.0737  21.6%     -    1s
     0     0 20868.4885    0  121 26581.0000 20868.4885  21.5%     -    1s
     0     0 21045.9680    0  123 26581.0000 21045.9680  20.8%     -    1s
     0     0 21233.9694    0  123 26581.0000 21233.9694  20.1%     -    1s
     0     0 21516.8063    0  132 26581.0000 21516.8063  19.1%     -    1s
     0     0 21756.5873    0  125 26581.0000 21756.5873  18.1%     -    1s
     0     0 21778.6293    0  134 26581.0000 21778.6293  18.1%     -    1s
     0     0 22149.4034    0  126 26581.0000 22149.4034  16.7%     -    1s
     0     0 22501.0273    0  126 26581.0000 22501.0273  15.3%     -    1s
     0     0 22883.9961    0  126 26581.0000 22883.9961  13.9%     -    1s
     0     0 22947.4034    0  124 26581.0000 22947.4034  13.7%     -    1s
     0     0 23043.4572    0  128 26581.0000 23043.4572  13.3%     -    1s
     0     0 23055.4572    0  128 26581.0000 23055.4572  13.3%     -    1s
     0     0 23144.1401    0  124 26581.0000 23144.1401  12.9%     -    1s
     0     0 23168.1401    0  126 26581.0000 23168.1401  12.8%     -    1s
     0     0 23240.1401    0  126 26581.0000 23240.1401  12.6%     -    1s
     0     0 23282.8122    0  100 26581.0000 23282.8122  12.4%     -    1s
     0     2 23282.8122    0  100 26581.0000 23282.8122  12.4%     -    2s

Cutting planes:
  Gomory: 7
  Implied bound: 8
  MIR: 75
  StrongCG: 9
  Flow cover: 1
  Zero half: 1
  Mod-K: 2
  RLT: 54
  Relax-and-lift: 1

Explored 1438 nodes (11131 simplex iterations) in 3.52 seconds (0.30 work units)
Thread count was 32 (of 128 available processors)

Solution count 10: 26581 26589 26600 ... 712441

Optimal solution found (tolerance 1.00e-10)
Best objective 2.658100000000e+04, best bound 2.658100000000e+04, gap 0.0000%
